292,241
239,60
77,166
320,257
137,255
338,280
234,345
347,321
22,361
262,172
269,69
97,197
262,290
270,182
21,46
114,72
286,351
220,350
297,5
242,373
349,1
356,9
349,152
328,240
287,300
65,74
321,88
327,242
39,365
161,393
325,16
370,241
153,147
271,367
336,60
296,46
384,204
41,214
203,245
104,55
382,2
117,248
301,31
41,364
274,352
157,73
126,74
179,241
128,190
384,158
